1 -1 2 0
1 3 4 0
1 5 -6 0
1 -5 7 0
1 -2 -3 0
1 8 -9 0
1 -10 11 0
1 -12 13 0
1 14 15 0
1 16 17 0
1 16 -10 0
1 -16 18 0
1 -19 3 0
1 11 20 0
1 11 -7 0
1 11 21 0
1 -20 -21 0
1 22 -19 0
1 23 -9 0
1 -23 22 0
1 -17 13 0
1 -17 -15 0
1 -15 23 0
1 -13 24 0
1 25 -26 0
1 27 -28 0
1 -27 -29 0
1 -27 30 0
1 27 -4 0
1 -30 -31 0
1 -28 -32 0
1 28 33 0
1 28 27 0
1 -34 33 0
1 35 -36 0
1 -37 -38 0
1 37 30 0
1 -39 37 0
1 -39 40 0
1 -39 -35 0
1 -41 -9 0
1 -41 -34 0
1 -41 42 0
1 -43 -34 0
1 43 -35 0
1 44 45 0
1 44 -34 0
1 44 -35 0
1 46 11 0
1 9 -23 0
1 21 47 0
1 48 -41 0
1 38 -48 0
1 38 -49 0
1 38 50 0
1 38 -21 0
1 38 35 0
1 -36 -51 0
1 -52 -46 0
1 53 54 0
1 -50 55 0
1 -50 -18 0
1 24 -56 0
1 -24 -57 0
1 58 59 0
1 -60 48 0
1 61 49 0
1 61 50 0
1 61 -62 0
1 63 56 0
1 59 64 0
1 -59 13 0
1 -59 -57 0
1 -65 -66 0
1 -65 67 0
1 -65 -57 0
1 -65 68 0
1 57 -69 0
1 -57 70 0
1 66 63 0
1 -56 -69 0
1 56 71 0
1 -56 -72 0
1 -70 57 0
1 -73 -74 0
1 73 67 0
1 -68 -70 0
1 -75 -70 0
1 -75 -72 0
1 76 13 0
1 -77 78 0
1 -79 -80 0
1 -79 -81 0
1 -79 -82 0
1 -79 -83 0
1 -29 81 0
1 84 85 0
1 84 86 0
1 -84 29 0
1 -78 -87 0
1 78 -88 0
1 80 26 0
1 -89 -90 0
1 -33 28 0
1 91 -92 0
1 91 35 0
1 93 94 0
1 93 95 0
1 -81 -96 0
1 97 -46 0
1 98 82 0
1 99 43 0
1 94 100 0
1 -94 31 0
1 -101 -94 0
1 101 85 0
1 102 -91 0
1 -103 104 0
1 103 105 0
1 106 -101 0
1 -45 32 0
1 107 101 0
1 107 -105 0
1 108 -109 0
1 31 94 0
1 31 109 0
1 -32 110 0
1 32 -111 0
1 -112 45 0
1 -51 40 0
1 51 -63 0
1 51 60 0
1 113 38 0
1 109 65 0
1 109 -114 0
1 -115 -72 0
1 115 111 0
1 -40 116 0
1 -40 -107 0
1 117 115 0
1 118 117 0
1 -118 -119 0
1 118 -120 0
1 -62 121 0
1 122 123 0
1 -114 122 0
1 124 121 0
1 -124 -125 0
1 126 -127 0
1 126 128 0
1 -129 -130 0
1 129 131 0
1 129 -115 0
1 -69 -123 0
1 69 -75 0
1 132 64 0
1 133 -134 0
1 134 123 0
1 123 -135 0
1 -123 132 0
1 -136 125 0
1 -137 -116 0
1 -138 76 0
1 138 -135 0
1 -139 140 0
1 141 -138 0
1 141 142 0
1 141 143 0
1 -144 141 0
1 145 -144 0
1 -146 -144 0
1 147 142 0
1 -147 -141 0
1 -148 149 0
1 148 -150 0
1 151 -152 0
1 -151 153 0
1 -154 155 0
1 154 -156 0
1 157 88 0
1 155 -156 0
1 158 -159 0
1 -158 160 0
1 -161 -162 0
1 163 -153 0
1 163 164 0
1 -87 -153 0
1 -87 -165 0
1 -166 -156 0
1 -165 161 0
1 167 -81 0
1 -167 78 0
1 167 -162 0
1 -96 -84 0
1 168 -99 0
1 -100 -169 0
1 170 -87 0
1 -95 81 0
1 -95 -171 0
1 95 90 0
1 -105 -171 0
1 172 -173 0
1 172 -105 0
1 86 -110 0
1 -86 -111 0
1 -86 172 0
1 174 100 0
1 174 95 0
1 -174 -175 0
1 176 -177 0
1 178 -102 0
1 -178 173 0
1 179 -93 0
1 -179 -178 0
1 180 181 0
1 -180 178 0
1 182 183 0
1 -182 90 0
1 -173 -81 0
1 -173 -110 0
1 119 108 0
1 120 -122 0
1 -184 185 0
1 184 119 0
1 184 -186 0
1 -187 -185 0
1 -188 -189 0
1 130 118 0
1 131 184 0
1 -131 190 0
1 -131 -126 0
1 131 -187 0
1 185 126 0
1 128 191 0
1 128 187 0
1 -128 192 0
1 190 -193 0
1 -190 194 0
1 190 -195 0
1 -190 128 0
1 -190 -120 0
1 192 -194 0
1 192 -196 0
1 -191 197 0
1 191 198 0
1 -191 196 0
1 -199 -130 0
1 199 -196 0
1 -200 -136 0
1 200 201 0
1 125 -202 0
1 125 -203 0
1 -125 -129 0
1 -204 205 0
1 195 192 0
1 206 -40 0
1 206 -207 0
1 206 -208 0
1 202 -185 0
1 203 -204 0
1 -209 210 0
1 -209 -211 0
1 209 212 0
1 209 71 0
1 -209 201 0
1 -209 -213 0
1 214 -205 0
1 -205 -215 0
1 -205 216 0
1 -217 204 0
1 127 218 0
1 127 -215 0
1 -213 -208 0
1 219 205 0
1 219 71 0
1 -220 -221 0
1 220 -219 0
1 220 217 0
1 149 222 0
1 -212 214 0
1 212 223 0
1 -212 219 0
1 -221 -224 0
1 -221 -225 0
1 -211 -219 0
1 226 227 0
1 226 -220 0
1 -226 -209 0
1 -226 -137 0
1 223 228 0
1 -223 216 0
1 224 -229 0
1 224 -230 0
1 -224 -212 0
1 -231 -232 0
1 -232 -224 0
1 -232 233 0
1 -232 -234 0
1 232 -231 0
1 -235 228 0
1 -228 -236 0
1 234 -231 0
1 -237 238 0
1 -238 -239 0
1 238 -240 0
1 241 -242 0
1 -241 243 0
1 -241 -244 0
1 -229 -234 0
1 229 -243 0
1 -245 -246 0
1 -247 246 0
1 248 -156 0
1 -246 249 0
1 250 -251 0
1 -250 252 0
1 -253 254 0
1 -255 -256 0
1 159 256 0
1 256 -253 0
1 256 -257 0
1 -258 -159 0
1 258 -259 0
1 254 248 0
1 -160 260 0
1 -260 96 0
1 -261 -262 0
1 263 264 0
1 -262 -265 0
1 266 159 0
1 -266 -267 0
1 268 -266 0
1 268 -269 0
1 270 -271 0
1 264 -272 0
1 264 273 0
1 264 274 0
1 -275 -276 0
1 -275 -105 0
1 -275 -271 0
1 277 -278 0
1 277 276 0
1 -277 -262 0
1 277 -271 0
1 -272 -265 0
1 272 -274 0
1 -274 279 0
1 -274 -272 0
1 -274 270 0
1 -276 155 0
1 -276 -280 0
1 -276 269 0
1 177 -281 0
1 282 -177 0
1 -282 274 0
1 279 283 0
1 279 -284 0
1 -175 -176 0
1 -175 272 0
1 175 -274 0
1 -175 284 0
1 285 -286 0
1 -286 287 0
1 286 288 0
1 -286 289 0
1 -283 290 0
1 -291 -86 0
1 289 -173 0
1 289 174 0
1 183 -292 0
1 -183 293 0
1 288 182 0
1 294 -289 0
1 -292 295 0
1 -293 -296 0
1 293 297 0
1 293 -289 0
1 -293 175 0
1 298 296 0
1 299 300 0
1 301 -180 0
1 -301 302 0
1 295 181 0
1 -303 304 0
1 305 306 0
1 -305 -171 0
1 300 -197 0
1 307 176 0
1 -307 288 0
1 308 -300 0
1 -308 -305 0
1 -308 -188 0
1 186 -184 0
1 -186 -308 0
1 -186 -300 0
1 -197 -309 0
1 -197 -300 0
1 197 -310 0
1 -311 -304 0
1 -304 -295 0
1 -312 -308 0
1 312 295 0
1 313 314 0
1 313 315 0
1 316 -218 0
1 -316 311 0
1 310 -218 0
1 -310 -317 0
1 -318 -311 0
1 -318 313 0
1 208 -193 0
1 -208 -202 0
1 218 198 0
1 222 149 0
1 222 -193 0
1 319 -320 0
1 -319 193 0
1 -319 -321 0
1 -315 222 0
1 -315 -322 0
1 -216 323 0
1 320 -207 0
1 -320 -216 0
1 -321 -324 0
1 321 -325 0
1 -326 327 0
1 326 -211 0
1 326 -328 0
1 -207 -326 0
1 207 -329 0
1 -325 207 0
1 -323 326 0
1 -323 -330 0
1 324 331 0
1 332 -333 0
1 -334 335 0
1 334 328 0
1 336 337 0
1 -338 336 0
1 339 205 0
1 328 -340 0
1 -341 -342 0
1 -343 -232 0
1 343 -339 0
1 343 -231 0
1 -343 -236 0
1 -236 241 0
1 -236 -344 0
1 -340 225 0
1 340 -241 0
1 243 345 0
1 -243 340 0
1 -243 -346 0
1 347 212 0
1 347 -348 0
1 225 349 0
1 225 -236 0
1 -350 -343 0
1 -227 351 0
1 -227 -236 0
1 352 -230 0
1 233 353 0
1 -233 352 0
1 233 354 0
1 233 355 0
1 -233 242 0
1 356 235 0
1 345 -242 0
1 357 358 0
1 -357 359 0
1 -357 240 0
1 240 -353 0
1 358 360 0
1 361 -353 0
1 361 -355 0
1 361 -360 0
1 -362 363 0
1 -362 -364 0
1 -365 247 0
1 366 367 0
1 366 -368 0
1 366 365 0
1 -364 -369 0
1 -364 362 0
1 -364 -365 0
1 363 249 0
1 -363 -370 0
1 371 -367 0
1 -367 -371 0
1 -370 363 0
1 -370 255 0
1 370 372 0
1 249 373 0
1 249 374 0
1 -249 246 0
1 374 -375 0
1 376 377 0
1 -376 -366 0
1 -376 365 0
1 -378 369 0
1 -378 365 0
1 -368 379 0
1 -251 -380 0
1 -251 250 0
1 251 374 0
1 251 -372 0
1 -381 377 0
1 381 -374 0
1 -377 374 0
1 382 -278 0
1 -373 278 0
1 373 -383 0
1 -373 -249 0
1 373 -384 0
1 -373 251 0
1 372 -385 0
1 -385 386 0
1 -385 249 0
1 385 -384 0
1 385 -387 0
1 385 -251 0
1 -257 -254 0
1 383 268 0
1 -383 -388 0
1 -267 373 0
1 267 -259 0
1 278 389 0
1 390 -280 0
1 390 391 0
1 -391 392 0
1 -391 -257 0
1 393 394 0
1 395 396 0
1 -395 -276 0
1 -395 -269 0
1 269 -282 0
1 -397 -390 0
1 397 271 0
1 -398 280 0
1 -396 -399 0
1 389 -278 0
1 -389 -396 0
1 389 -400 0
1 290 -271 0
1 401 400 0
1 401 402 0
1 403 -297 0
1 -404 -266 0
1 404 405 0
1 -405 -280 0
1 -297 -298 0
1 297 299 0
1 406 407 0
1 408 -287 0
1 -408 -409 0
1 408 410 0
1 -408 -407 0
1 -408 -411 0
1 -409 412 0
1 413 -414 0
1 413 -406 0
1 -402 -415 0
1 402 -414 0
1 -407 -416 0
1 -296 298 0
1 296 -417 0
1 -296 418 0
1 419 -409 0
1 -419 418 0
1 -420 421 0
1 418 -419 0
1 418 422 0
1 -287 418 0
1 -287 -408 0
1 287 423 0
1 424 425 0
1 -424 -417 0
1 -424 408 0
1 -411 -417 0
1 306 -300 0
1 -306 -414 0
1 -306 426 0
1 -306 427 0
1 428 -287 0
1 428 429 0
1 428 -426 0
1 -428 -430 0
1 -428 313 0
1 -431 432 0
1 -431 -430 0
1 433 -434 0
1 -435 -433 0
1 -426 -419 0
1 426 -436 0
1 -421 -419 0
1 421 -437 0
1 -421 -436 0
1 -421 431 0
1 438 -430 0
1 -439 -440 0
1 -440 -441 0
1 440 -439 0
1 317 316 0
1 317 -318 0
1 317 216 0
1 -442 -309 0
1 442 443 0
1 -442 -317 0
1 -322 443 0
1 327 -444 0
1 -443 -445 0
1 446 327 0
1 446 -447 0
1 446 448 0
1 449 -198 0
1 335 198 0
1 -335 -443 0
1 335 -450 0
1 -335 -324 0
1 -337 -451 0
1 337 443 0
1 -337 336 0
1 -452 -324 0
1 452 338 0
1 -451 -453 0
1 -450 -337 0
1 450 449 0
1 -444 -309 0
1 -454 444 0
1 -331 344 0
1 344 331 0
1 346 455 0
1 -346 -456 0
1 346 -457 0
1 -346 341 0
1 -458 457 0
1 -456 459 0
1 456 337 0
1 456 460 0
1 456 -461 0
1 -460 -462 0
1 -460 -463 0
1 464 -333 0
1 -465 -458 0
1 -466 458 0
1 -467 468 0
1 -467 469 0
1 469 -342 0
1 469 -464 0
1 -455 -470 0
1 -471 227 0
1 -471 -469 0
1 -472 350 0
1 473 359 0
1 -474 473 0
1 474 465 0
1 -474 -466 0
1 475 473 0
1 -475 465 0
1 -475 -476 0
1 475 466 0
1 -477 478 0
1 -479 345 0
1 480 -481 0
1 -480 -348 0
1 -481 482 0
1 -481 354 0
1 -481 -480 0
1 -348 483 0
1 348 -484 0
1 -349 -359 0
1 -485 479 0
1 485 486 0
1 351 -479 0
1 -360 -349 0
1 -487 -349 0
1 -487 348 0
1 -487 -361 0
1 -484 -486 0
1 -488 482 0
1 488 -348 0
1 -489 -484 0
1 -354 490 0
1 -354 -484 0
1 491 492 0
1 -491 493 0
1 491 -483 0
1 -491 480 0
1 -482 487 0
1 494 489 0
1 494 495 0
1 -496 -354 0
1 497 498 0
1 497 -499 0
1 498 500 0
1 498 -494 0
1 -495 -501 0
1 -495 361 0
1 495 502 0
1 503 -501 0
1 -503 504 0
1 -505 -506 0
1 -506 505 0
1 507 -508 0
1 -507 509 0
1 507 510 0
1 -507 -511 0
1 507 -512 0
1 513 -508 0
1 -513 -514 0
1 515 -508 0
1 -515 516 0
1 517 367 0
1 517 -518 0
1 -519 -520 0
1 521 522 0
1 521 -509 0
1 -521 -523 0
1 520 -524 0
1 520 -525 0
1 -526 527 0
1 -526 -528 0
1 -529 530 0
1 529 531 0
1 532 526 0
1 -528 533 0
1 -528 534 0
1 -528 -523 0
1 528 -526 0
1 535 536 0
1 535 -537 0
1 535 -523 0
1 -538 537 0
1 539 529 0
1 539 -384 0
1 -539 -526 0
1 536 -384 0
1 536 -535 0
1 536 -539 0
1 527 386 0
1 527 -540 0
1 -527 -535 0
1 384 395 0
1 541 -542 0
1 543 -544 0
1 -543 -542 0
1 545 543 0
1 -546 545 0
1 -542 538 0
1 -542 547 0
1 542 545 0
1 -548 -547 0
1 -548 -543 0
1 548 -549 0
1 -399 550 0
1 -399 551 0
1 551 -396 0
1 -551 -391 0
1 -400 552 0
1 400 -389 0
1 400 -553 0
1 553 -389 0
1 -553 -554 0
1 555 382 0
1 -555 -556 0
1 -544 557 0
1 558 559 0
1 -560 -561 0
1 -560 399 0
1 -556 -544 0
1 556 -405 0
1 557 -562 0
1 -557 563 0
1 557 -564 0
1 557 404 0
1 -557 -544 0
1 557 565 0
1 -410 552 0
1 410 555 0
1 552 556 0
1 392 -415 0
1 392 557 0
1 562 566 0
1 -562 -557 0
1 562 400 0
1 562 567 0
1 -562 388 0
1 -394 -553 0
1 568 404 0
1 -568 402 0
1 569 570 0
1 -569 403 0
1 415 -552 0
1 -416 415 0
1 416 552 0
1 416 -402 0
1 -570 -416 0
1 565 -571 0
1 563 -566 0
1 -563 -557 0
1 563 416 0
1 572 389 0
1 572 -573 0
1 -574 -413 0
1 -414 -570 0
1 414 413 0
1 -429 -428 0
1 -575 565 0
1 -576 422 0
1 -577 414 0
1 578 579 0
1 578 416 0
1 -580 -416 0
1 -422 -412 0
1 425 -438 0
1 425 581 0
1 582 -436 0
1 582 -583 0
1 -582 581 0
1 436 -412 0
1 412 -584 0
1 -412 585 0
1 581 586 0
1 -581 413 0
1 587 -588 0
1 587 585 0
1 583 589 0
1 586 -426 0
1 -590 591 0
1 -584 327 0
1 -584 -592 0
1 -584 434 0
1 584 -581 0
1 592 591 0
1 -592 418 0
1 592 -593 0
1 591 594 0
1 -591 -586 0
1 -591 -595 0
1 596 586 0
1 597 -598 0
1 -597 -599 0
1 -600 440 0
1 -600 -430 0
1 -601 -602 0
1 434 600 0
1 -603 434 0
1 -604 -584 0
1 -604 -448 0
1 -604 -594 0
1 -605 -606 0
1 447 603 0
1 -447 -443 0
1 -445 603 0
1 -445 443 0
1 607 434 0
1 607 608 0
1 -608 609 0
1 608 -454 0
1 -608 -610 0
1 -610 611 0
1 -610 463 0
1 -610 -453 0
1 612 -601 0
1 612 440 0
1 463 613 0
1 -463 -453 0
1 -453 -614 0
1 -453 -450 0
1 461 609 0
1 614 453 0
1 -609 -615 0
1 609 608 0
1 462 -611 0
1 616 617 0
1 -618 -330 0
1 -618 619 0
1 -620 330 0
1 -620 359 0
1 -621 618 0
1 -621 622 0
1 621 -616 0
1 621 -623 0
1 -617 621 0
1 -619 -624 0
1 619 618 0
1 619 625 0
1 -619 -626 0
1 478 475 0
1 -468 -469 0
1 -623 -627 0
1 623 628 0
1 627 468 0
1 627 629 0
1 -630 -631 0
1 630 -629 0
1 -459 -478 0
1 -632 633 0
1 629 634 0
1 -635 636 0
1 -635 -637 0
1 -635 470 0
1 635 629 0
1 -486 637 0
1 486 -630 0
1 486 -638 0
1 639 636 0
1 -639 630 0
1 637 -640 0
1 636 -330 0
1 636 641 0
1 -636 -470 0
1 636 -623 0
1 483 -637 0
1 -492 -642 0
1 -492 351 0
1 -493 -476 0
1 643 644 0
1 -642 501 0
1 642 639 0
1 -645 483 0
1 -646 491 0
1 502 -647 0
1 -502 489 0
1 504 -501 0
1 504 -648 0
1 504 -649 0
1 501 648 0
1 650 349 0
1 650 643 0
1 651 -502 0
1 -651 493 0
1 647 652 0
1 -647 653 0
1 654 490 0
1 -655 490 0
1 -656 657 0
1 649 658 0
1 -649 -659 0
1 -657 660 0
1 -657 -504 0
1 657 661 0
1 657 499 0
1 -662 -504 0
1 -658 -649 0
1 -658 663 0
1 -658 664 0
1 659 490 0
1 -665 -666 0
1 -665 -497 0
1 -667 666 0
1 667 655 0
1 -667 -668 0
1 -664 669 0
1 -664 -660 0
1 664 -670 0
1 670 -671 0
1 670 -672 0
1 -673 505 0
1 -674 -675 0
1 675 676 0
1 675 677 0
1 678 679 0
1 -678 674 0
1 678 -680 0
1 681 -682 0
1 683 -675 0
1 514 -684 0
1 -685 -673 0
1 685 681 0
1 -682 685 0
1 682 -674 0
1 -686 -687 0
1 688 -681 0
1 -512 507 0
1 516 -685 0
1 -525 -689 0
1 525 526 0
1 -530 -689 0
1 530 -525 0
1 -530 -529 0
1 690 -516 0
1 -690 514 0
1 -690 691 0
1 -684 692 0
1 689 693 0
1 -694 -695 0
1 -694 683 0
1 523 -696 0
1 -522 -697 0
1 522 698 0
1 692 -511 0
1 534 696 0
1 534 -511 0
1 -534 699 0
1 -534 700 0
1 701 530 0
1 -701 702 0
1 697 -703 0
1 704 531 0
1 -533 704 0
1 705 -700 0
1 706 -701 0
1 707 700 0
1 -707 706 0
1 -708 520 0
1 -699 -524 0
1 -547 709 0
1 710 547 0
1 -711 -712 0
1 -554 -700 0
1 554 713 0
1 554 542 0
1 714 -547 0
1 -714 549 0
1 715 716 0
1 -715 711 0
1 717 -705 0
1 717 718 0
1 717 706 0
1 -712 719 0
1 712 711 0
1 -712 -698 0
1 -712 718 0
1 -716 -715 0
1 716 540 0
1 -716 542 0
1 -720 721 0
1 722 -561 0
1 -722 723 0
1 722 -724 0
1 540 -716 0
1 540 713 0
1 -540 554 0
1 561 -725 0
1 561 726 0
1 -723 -720 0
1 -721 415 0
1 -721 394 0
1 -721 559 0
1 567 -727 0
1 567 416 0
1 567 726 0
1 -567 -728 0
1 -728 729 0
1 728 375 0
1 -728 -730 0
1 -725 -546 0
1 725 -723 0
1 726 731 0
1 566 732 0
1 729 562 0
1 -729 -552 0
1 729 733 0
1 -734 -735 0
1 734 727 0
1 736 563 0
1 559 -721 0
1 -571 -737 0
1 571 -563 0
1 -579 -570 0
1 -738 739 0
1 738 -740 0
1 -738 573 0
1 -737 -552 0
1 737 579 0
1 -737 -736 0
1 737 -741 0
1 -742 743 0
1 744 745 0
1 744 738 0
1 -744 -746 0
1 -747 573 0
1 -589 -580 0
1 589 -747 0
1 -743 748 0
1 -743 573 0
1 743 -749 0
1 -739 -589 0
1 -739 747 0
1 573 -750 0
1 -585 598 0
1 -585 -412 0
1 -598 751 0
1 598 -587 0
1 -598 -412 0
1 598 -596 0
1 -598 -749 0
1 -752 -751 0
1 -751 753 0
1 -754 755 0
1 -748 756 0
1 748 -757 0
1 -748 -758 0
1 -749 752 0
1 599 592 0
1 -595 759 0
1 -595 592 0
1 753 760 0
1 -753 -761 0
1 753 -762 0
1 753 608 0
1 759 763 0
1 588 -599 0
1 764 765 0
1 -764 752 0
1 -764 -766 0
1 764 -758 0
1 -767 -762 0
1 -767 768 0
1 768 -453 0
1 768 -769 0
1 770 606 0
1 -770 769 0
1 771 -762 0
1 771 766 0
1 -761 -772 0
1 -762 -773 0
1 762 768 0
1 760 597 0
1 -760 -774 0
1 -760 775 0
1 760 776 0
1 -760 771 0
1 777 -778 0
1 -779 780 0
1 781 -611 0
1 -781 779 0
1 781 771 0
1 -780 782 0
1 -780 771 0
1 -783 611 0
1 -783 -784 0
1 -606 -771 0
1 -626 785 0
1 626 -786 0
1 787 -781 0
1 782 -788 0
1 786 -789 0
1 790 791 0
1 790 -638 0
1 785 -782 0
1 -792 -793 0
1 -794 -617 0
1 -794 632 0
1 -794 786 0
1 638 -795 0
1 -796 -797 0
1 -796 -798 0
1 793 787 0
1 -793 -799 0
1 788 797 0
1 788 799 0
1 -788 800 0
1 -633 -459 0
1 -633 795 0
1 -631 -801 0
1 -802 803 0
1 -802 804 0
1 -802 -805 0
1 -802 470 0
1 -804 806 0
1 807 638 0
1 808 -809 0
1 -795 -810 0
1 -811 -803 0
1 812 813 0
1 812 814 0
1 815 -816 0
1 815 -476 0
1 -815 -806 0
1 815 814 0
1 -817 -804 0
1 817 -803 0
1 803 -804 0
1 -803 817 0
1 803 -812 0
1 818 809 0
1 806 -818 0
1 -653 -642 0
1 -652 -819 0
1 -820 819 0
1 820 817 0
1 -820 821 0
1 -640 822 0
1 -640 823 0
1 -640 -661 0
1 814 820 0
1 -641 -824 0
1 641 653 0
1 641 825 0
1 641 826 0
1 813 -812 0
1 813 826 0
1 -827 819 0
1 -827 -661 0
1 -827 814 0
1 828 -829 0
1 -828 830 0
1 -831 819 0
1 831 821 0
1 831 829 0
1 819 -831 0
1 -821 832 0
1 -833 834 0
1 833 835 0
1 672 819 0
1 672 -664 0
1 669 -836 0
1 -669 -664 0
1 830 -666 0
1 -837 650 0
1 838 834 0
1 838 672 0
1 -839 -840 0
1 -839 -841 0
1 839 -842 0
1 -839 -831 0
1 666 -843 0
1 671 666 0
1 671 667 0
1 -671 830 0
1 -844 -845 0
1 -836 -669 0
1 -836 -842 0
1 -846 -847 0
1 846 -848 0
1 -849 -848 0
1 849 -845 0
1 -850 849 0
1 668 -844 0
1 668 850 0
1 845 -846 0
1 -851 -670 0
1 687 682 0
1 -687 -694 0
1 -852 -694 0
1 695 -694 0
1 -676 -853 0
1 691 690 0
1 -691 -696 0
1 -691 854 0
1 855 -856 0
1 855 -691 0
1 -853 857 0
1 -853 -856 0
1 -853 -858 0
1 -857 859 0
1 856 -860 0
1 861 -862 0
1 -861 -691 0
1 -863 -697 0
1 863 708 0
1 862 711 0
1 864 708 0
1 -858 865 0
1 858 -862 0
1 -866 -867 0
1 -859 -868 0
1 859 860 0
1 -719 717 0
1 869 866 0
1 718 -702 0
1 718 -712 0
1 702 -870 0
1 -702 718 0
1 871 -872 0
1 871 718 0
1 873 874 0
1 873 869 0
1 875 -714 0
1 870 -540 0
1 870 -871 0
1 872 702 0
1 -872 -713 0
1 876 -872 0
1 876 -567 0
1 877 732 0
1 -877 -878 0
1 -879 732 0
1 879 872 0
1 -879 -865 0
1 -880 -865 0
1 880 876 0
1 -732 881 0
1 732 882 0
1 735 -883 0
1 -735 -877 0
1 -735 884 0
1 735 885 0
1 -735 734 0
1 -731 -726 0
1 731 885 0
1 886 872 0
1 -887 -735 0
1 -887 888 0
1 -887 -886 0
1 885 -732 0
1 -885 -876 0
1 730 889 0
1 -730 726 0
1 888 728 0
1 890 -884 0
1 -890 -891 0
1 892 886 0
1 893 894 0
1 -893 720 0
1 -893 895 0
1 896 -893 0
1 -884 897 0
1 889 -540 0
1 895 744 0
1 895 898 0
1 -899 -900 0
1 899 740 0
1 894 896 0
1 -894 901 0
1 -745 -743 0
1 -902 -903 0
1 -904 892 0
1 -904 -890 0
1 901 894 0
1 901 -726 0
1 905 906 0
1 905 745 0
1 -905 -899 0
1 -750 903 0
1 -750 904 0
1 -750 907 0
1 -750 908 0
1 -903 739 0
1 -903 -907 0
1 -909 739 0
1 909 -910 0
1 -911 912 0
1 -911 904 0
1 911 -909 0
1 911 -913 0
1 914 -915 0
1 916 750 0
1 -916 -917 0
1 907 906 0
1 -907 918 0
1 907 -917 0
1 -757 919 0
1 757 920 0
1 -757 921 0
1 -921 573 0
1 921 749 0
1 921 -914 0
1 915 -922 0
1 -923 -748 0
1 -923 -915 0
1 -924 -758 0
1 -913 925 0
1 913 -926 0
1 913 -927 0
1 913 921 0
1 -928 911 0
1 928 -929 0
1 -928 930 0
1 930 928 0
1 -765 588 0
1 -765 758 0
1 931 932 0
1 -766 913 0
1 -922 -775 0
1 922 933 0
1 922 765 0
1 -922 -766 0
1 922 -758 0
1 934 925 0
1 -934 -931 0
1 935 765 0
1 763 762 0
1 -936 -777 0
1 775 937 0
1 -932 -931 0
1 938 -939 0
1 -938 -931 0
1 -938 -756 0
1 938 940 0
1 938 -941 0
1 -773 760 0
1 -773 762 0
1 773 -593 0
1 -942 943 0
1 937 -775 0
1 937 944 0
1 937 -759 0
1 -945 946 0
1 947 -942 0
1 -948 -774 0
1 949 606 0
1 -949 -950 0
1 -951 -952 0
1 -946 785 0
1 946 952 0
1 946 953 0
1 -954 953 0
1 950 -805 0
1 -772 -954 0
1 -772 -800 0
1 952 955 0
1 -956 -946 0
1 800 -786 0
1 800 793 0
1 -791 957 0
1 791 631 0
1 -791 -800 0
1 799 784 0
1 -799 -958 0
1 953 -959 0
1 953 -798 0
1 960 -959 0
1 -784 805 0
1 957 -961 0
1 -797 962 0
1 -797 953 0
1 -797 963 0
1 -810 -812 0
1 -816 -960 0
1 958 786 0
1 964 810 0
1 -963 962 0
1 -962 -965 0
1 -966 -818 0
1 966 -795 0
1 809 964 0
1 809 967 0
1 -968 969 0
1 968 -970 0
1 971 -825 0
1 -967 972 0
1 -967 973 0
1 -974 975 0
1 976 977 0
1 -978 818 0
1 978 965 0
1 -826 806 0
1 979 825 0
1 825 -969 0
1 980 825 0
1 -969 -832 0
1 -969 -825 0
1 981 979 0
1 -822 833 0
1 -823 -982 0
1 835 -832 0
1 835 -824 0
1 983 984 0
1 983 -833 0
1 834 819 0
1 834 985 0
1 -834 -838 0
1 -834 986 0
1 -987 -839 0
1 987 -988 0
1 -984 -840 0
1 984 -835 0
1 986 983 0
1 -986 -835 0
1 -824 989 0
1 -824 -990 0
1 990 -987 0
1 990 835 0
1 991 992 0
1 -991 839 0
1 991 -837 0
1 -991 -986 0
1 -993 994 0
1 -993 -986 0
1 -995 -994 0
1 -994 -991 0
1 -988 -991 0
1 -988 -993 0
1 860 859 0
1 -996 -997 0
1 998 -874 0
1 -999 -1000 0
1 -874 -868 0
1 -874 998 0
1 -1001 856 0
1 1002 996 0
1 -1002 -1003 0
1 1002 -1004 0
1 1005 1006 0
1 881 732 0
1 881 1001 0
1 -1007 703 0
1 -1007 -1008 0
1 -883 -1001 0
1 883 1008 0
1 883 -1009 0
1 -883 -1010 0
1 1009 1011 0
1 -1011 -883 0
1 1011 858 0
1 -1011 -1009 0
1 -868 -881 0
1 -878 -880 0
1 -1012 -1013 0
1 -891 -1014 0
1 -1015 -892 0
1 1016 -1010 0
1 -1016 -1017 0
1 1016 -1018 0
1 -1016 898 0
1 1016 -891 0
1 1010 1012 0
1 -1010 1018 0
1 -1010 878 0
1 -1014 -1019 0
1 -1014 1012 0
1 -900 -1020 0
1 -900 -884 0
1 1021 1022 0
1 1021 1010 0
1 1023 -1024 0
1 1025 1023 0
1 1025 -898 0
1 1026 900 0
1 -1020 1015 0
1 1027 1021 0
1 -908 -1025 0
1 -897 1025 0
1 912 1028 0
1 912 -905 0
1 -912 -1026 0
1 1029 -1021 0
1 1028 -1029 0
1 -1028 1030 0
1 1022 1030 0
1 -920 -906 0
1 -920 1031 0
1 -920 -1032 0
1 -906 -1031 0
1 906 902 0
1 1033 -915 0
1 -1033 910 0
1 1034 -1035 0
1 1036 -1037 0
1 1036 -1033 0
1 -1032 -896 0
1 1038 -906 0
1 1038 884 0
1 -1038 1034 0
1 -929 1039 0
1 917 -1032 0
1 -917 -930 0
1 1040 -1041 0
1 -1040 -1042 0
1 1042 1034 0
1 -1035 -929 0
1 1043 -929 0
1 1041 -1040 0
1 927 -1035 0
1 -927 1044 0
1 -1045 -1046 0
1 -1047 -934 0
1 -1048 1049 0
1 -1050 925 0
1 1051 1045 0
1 918 1052 0
1 -918 1053 0
1 -918 -1047 0
1 918 1051 0
1 -1049 -1054 0
1 -1049 -1055 0
1 1049 941 0
1 -1055 -928 0
1 1055 1056 0
1 1055 -1046 0
1 1046 -1057 0
1 -1046 -930 0
1 -939 -938 0
1 939 -755 0
1 -940 1058 0
1 940 -932 0
1 940 947 0
1 1059 -947 0
1 1060 -1059 0
1 933 922 0
1 933 -944 0
1 -1058 -1049 0
1 1061 -1062 0
1 -1061 -1063 0
1 -1061 1064 0
1 -1065 -1066 0
1 944 956 0
1 1067 -1068 0
1 -1069 -1066 0
1 1070 -1071 0
1 -1070 1069 0
1 -1070 1072 0
1 -1073 -944 0
1 -1073 -1074 0
1 -1073 1063 0
1 1073 -1067 0
1 1068 1075 0
1 955 1071 0
1 955 -1076 0
1 -1071 1070 0
1 1071 1076 0
1 -1071 -952 0
1 -1071 -950 0
1 -1071 1077 0
1 -961 1078 0
1 -961 1079 0
1 961 957 0
1 961 784 0
1 -1080 -816 0
1 -1076 -1071 0
1 -1076 1081 0
1 1076 -1082 0
1 -1078 -1083 0
1 1084 1080 0
1 -1085 -1086 0
1 -1085 -1067 0
1 959 -960 0
1 959 -1076 0
1 1087 1083 0
1 -1087 -1088 0
1 -1083 -963 0
1 1089 -965 0
1 -1090 961 0
1 -1079 -956 0
1 -1079 -1087 0
1 1079 959 0
1 -975 -1091 0
1 975 963 0
1 977 1092 0
1 1092 -1093 0
1 -1092 1087 0
1 -1092 -1094 0
1 -1092 -975 0
1 -972 974 0
1 972 822 0
1 972 -976 0
1 972 -1095 0
1 973 -823 0
1 1096 981 0
1 1097 1098 0
1 1095 1099 0
1 1100 -1094 0
1 1101 1102 0
1 -1099 -1103 0
1 -1099 1104 0
1 1105 1106 0
1 1102 1107 0
1 1102 1105 0
1 -1108 -1109 0
1 1108 976 0
1 989 -1103 0
1 -989 -1110 0
1 989 1111 0
1 -1112 982 0
1 1113 1114 0
1 1113 -1115 0
1 -1116 -1114 0
1 -1117 -868 0
1 -1117 1118 0
1 1117 -1119 0
1 -1117 -1000 0
1 1120 -1121 0
1 1122 1006 0
1 -1122 1003 0
1 -1119 -1123 0
1 -1119 -1120 0
1 -1119 1124 0
1 -1121 1000 0
1 1125 -1013 0
1 -1123 1125 0
1 1123 1126 0
1 -1124 -1006 0
1 1024 -1023 0
1 1024 -1127 0
1 1003 1002 0
1 1003 1128 0
1 1006 -1005 0
1 -1006 1128 0
1 1019 1129 0
1 -1019 -1018 0
1 1130 1131 0
1 -1130 1003 0
1 1130 1132 0
1 1133 1130 0
1 1134 -1135 0
1 1134 1136 0
1 1134 1018 0
1 -1134 1124 0
1 -1132 -1137 0
1 1136 1138 0
1 -1136 -1020 0
1 -1136 1026 0
1 1135 1138 0
1 -1139 1140 0
1 -1139 -1134 0
1 1141 -1140 0
1 -1141 -1138 0
1 -1141 -1142 0
1 1017 1130 0
1 -1017 -1016 0
1 1017 1141 0
1 -1138 -1141 0
1 -1143 1144 0
1 1039 1145 0
1 -1146 -1031 0
1 -1147 -1148 0
1 1149 -1144 0
1 -1142 -1146 0
1 1142 1141 0
1 -1145 1039 0
1 -1145 -1146 0
1 1150 1151 0
1 -1152 1027 0
1 1152 1146 0
1 -1153 -1154 0
1 1153 1155 0
1 1156 -1153 0
1 -1156 -1047 0
1 -1156 1157 0
1 1158 1037 0
1 -1158 -1029 0
1 1159 -1153 0
1 -1159 -1147 0
1 1160 1161 0
1 -1160 -1037 0
1 1160 -1147 0
1 1160 -1162 0
1 -1160 1044 0
1 1053 -1159 0
1 -1053 1043 0
1 1163 1154 0
1 1163 -918 0
1 1163 1158 0
1 -1163 -1157 0
1 1054 1164 0
1 1165 1054 0
1 1165 -1166 0
1 -1157 1052 0
1 1157 -1036 0
1 -1167 -1163 0
1 -1154 -1168 0
1 -1052 -1164 0
1 -1052 1169 0
1 -1170 1052 0
1 -1171 -1166 0
1 1171 1164 0
1 -1171 -1169 0
1 1172 1056 0
1 -1164 -1165 0
1 -1169 -1052 0
1 -1169 1165 0
1 1173 1054 0
1 1173 1174 0
1 1064 1065 0
1 1056 1164 0
1 1056 -1175 0
1 1056 926 0
1 1176 1177 0
1 -1176 -1067 0
1 -1176 -1172 0
1 -1178 -1179 0
1 -1180 1171 0
1 -1181 -1063 0
1 1181 -1064 0
1 1181 1171 0
1 1175 1182 0
1 -1175 -1183 0
1 1063 1177 0
1 -1075 1184 0
1 -1185 -1186 0
1 -1185 1068 0
1 1187 -1183 0
1 -1187 -1185 0
1 -1179 -1188 0
1 -1177 1189 0
1 1177 1190 0
1 1177 -1185 0
1 1184 1191 0
1 1184 1192 0
1 1193 -1194 0
1 1193 -1176 0
1 1086 -959 0
1 -1195 -1186 0
1 1190 1179 0
1 1190 -1072 0
1 1196 1191 0
1 -1197 -1185 0
1 -1186 1189 0
1 1186 1198 0
1 -1062 -1189 0
1 -1199 1090 0
1 1199 -1200 0
1 -1082 -1189 0
1 -1082 -1199 0
1 -1082 -1085 0
1 -1201 1090 0
1 -1202 1072 0
1 -1072 1199 0
1 1203 -1196 0
1 -1203 1190 0
1 1074 1204 0
1 1200 1190 0
1 1200 -1068 0
1 -1205 1091 0
1 -1205 1206 0
1 1205 1090 0
1 -1207 1208 0
1 1207 -1081 0
1 1209 1207 0
1 -1209 1084 0
1 1093 1210 0
1 -1211 -1210 0
1 1211 1081 0
1 -1211 -1212 0
1 1213 -1214 0
1 -1213 1211 0
1 -1213 1215 0
1 -1216 1211 0
1 1216 -1093 0
1 1216 1217 0
1 1218 1093 0
1 1214 -1079 0
1 -1214 -1093 0
1 -1214 -1207 0
1 1214 1212 0
1 1219 -1210 0
1 -1219 -1108 0
1 -1217 -1102 0
1 -1220 -1217 0
1 1220 -1088 0
1 -1221 1107 0
1 1222 -1107 0
1 -1222 1217 0
1 -1223 1224 0
1 1225 -1226 0
1 -1227 -1226 0
1 1227 -1228 0
1 -1226 1144 0
1 1229 1121 0
1 -1229 -1230 0
1 1229 1223 0
1 1231 1132 0
1 1232 -1228 0
1 -1144 -1224 0
1 -1233 -1227 0
1 -1234 1235 0
1 -1234 1148 0
1 1234 1225 0
1 1236 1227 0
1 -1237 1238 0
1 -1237 1239 0
1 1240 1239 0
1 -1240 -1228 0
1 -1240 -1241 0
1 -1240 -1156 0
1 -1239 1242 0
1 1239 -1240 0
1 1238 -1148 0
1 1238 1243 0
1 -1244 1245 0
1 -1244 1246 0
1 1244 1247 0
1 -1244 1152 0
1 1244 -1145 0
1 -1248 -1249 0
1 1248 1160 0
1 -1248 -1250 0
1 1246 -1244 0
1 1251 -1246 0
1 -1251 1248 0
1 -1251 -1252 0
1 -1253 -1254 0
1 -1253 -1248 0
1 -1168 -1151 0
1 1255 -1154 0
1 1255 -1246 0
1 1256 -1257 0
1 1256 1258 0
1 1249 -1248 0
1 -1151 1150 0
1 1151 -1259 0
1 1250 -1255 0
1 1250 -1260 0
1 -1261 1249 0
1 1257 -1262 0
1 -1257 -1263 0
1 1264 1260 0
1 1265 -1266 0
1 -1265 -1264 0
1 1265 -1257 0
1 -1267 1255 0
1 -1267 -1264 0
1 1162 1266 0
1 1162 1264 0
1 1268 1266 0
1 -1268 -1269 0
1 -1268 1264 0
1 -1268 1261 0
1 -1268 1270 0
1 1271 1262 0
1 -1271 -1265 0
1 1272 -1273 0
1 -1272 -1271 0
1 1183 -1274 0
1 -1263 1191 0
1 -1275 -1276 0
1 1275 -1272 0
1 1262 -1277 0
1 -1192 -1184 0
1 1192 1263 0
1 -1194 -1191 0
1 1194 -1190 0
1 1194 -1274 0
1 -1191 -1278 0
1 1191 -1184 0
1 1191 -1279 0
1 1280 -1189 0
1 1280 -1281 0
1 -1281 1282 0
1 1274 -1283 0
1 1274 -1284 0
1 -1274 -1285 0
1 -1198 1062 0
1 -1189 1280 0
1 1282 -1286 0
1 -1286 1287 0
1 -1286 -1204 0
1 -1286 -1288 0
1 1289 -1290 0
1 1289 1291 0
1 -1289 1288 0
1 -1278 -1279 0
1 -1279 1175 0
1 1206 1074 0
1 1208 -1074 0
1 -1208 -1292 0
1 1208 -1289 0
1 1291 1289 0
1 -1291 -1293 0
1 -1294 1295 0
1 1294 1288 0
1 1296 -1297 0
1 -1296 -1208 0
1 1296 -1293 0
1 -1298 1299 0
1 1298 -1094 0
1 -1298 1300 0
1 -1292 -1301 0
1 -1292 -1291 0
1 -1302 1303 0
1 1302 -1304 0
1 1302 -1208 0
1 1302 -1305 0
1 1306 1307 0
1 1306 1212 0
1 -1308 -1217 0
1 -1307 1306 0
1 1307 1305 0
1 1309 -1301 0
1 1310 1305 0
1 -1311 1308 0
1 1312 -1233 0
1 1247 -1233 0
1 1313 -1235 0
1 1243 -1248 0
1 1314 -1315 0
1 -1314 1247 0
1 1316 -1242 0
1 -1317 1230 0
1 -1242 1318 0
1 -1242 -1241 0
1 1319 -1320 0
1 1321 1322 0
1 1323 -1322 0
1 -1324 1325 0
1 1324 -1259 0
1 -1326 1313 0
1 1326 -1327 0
1 -1318 1321 0
1 -1260 1264 0
1 -1260 -1328 0
1 1260 1322 0
1 -1329 -1330 0
1 -1331 -1332 0
1 -1331 -1239 0
1 -1333 1334 0
1 1333 -1327 0
1 1322 -1335 0
1 -1330 1336 0
1 1269 -1272 0
1 -1270 -1337 0
1 -1332 1268 0
1 1332 -1338 0
1 1332 -1339 0
1 1338 1259 0
1 -1337 -1340 0
1 1337 -1338 0
1 1337 -1277 0
1 -1336 -1332 0
1 1336 -1341 0
1 -1336 -1330 0
1 -1277 -1335 0
1 -1266 -1162 0
1 -1266 1277 0
1 1342 1341 0
1 1343 1344 0
1 1345 -1266 0
1 -1339 1346 0
1 1339 -1342 0
1 -1339 -1270 0
1 1339 -1347 0
1 -1347 -1348 0
1 -1347 1277 0
1 1285 -1345 0
1 -1276 1345 0
1 -1349 -1350 0
1 1351 1343 0
1 1351 1352 0
1 -1344 -1284 0
1 1350 -1353 0
1 1350 1354 0
1 1355 1350 0
1 1284 1274 0
1 -1284 1283 0
1 -1284 -1280 0
1 -1356 -1279 0
1 -1356 -1357 0
1 1358 1359 0
1 -1360 -1279 0
1 1360 -1351 0
1 -1361 1263 0
1 1362 -1363 0
1 -1362 -1354 0
1 1297 1289 0
1 1364 -1296 0
1 1364 -1365 0
1 -1364 -1366 0
1 1366 -1296 0
1 -1359 1364 0
1 -1359 1297 0
1 -1367 -1366 0
1 -1304 -1296 0
1 -1304 1295 0
1 -1304 -1300 0
1 -1295 1293 0
1 1303 1368 0
1 1303 -1369 0
1 1370 -1368 0
1 1371 1286 0
1 1290 -1370 0
1 1372 -1303 0
1 -1372 -1295 0
1 -1369 -1372 0
1 -1334 1373 0
1 -1334 1324 0
1 1334 -1325 0
1 -1374 -1373 0
1 1374 1375 0
1 1335 -1333 0
1 1376 1336 0
1 -1341 -1377 0
1 1378 -1379 0
1 1378 1380 0
1 1381 -1374 0
1 -1382 -1383 0
1 1382 1384 0
1 1382 -1380 0
1 1375 1318 0
1 1340 -1276 0
1 -1346 -1385 0
1 1346 -1377 0
1 1346 1386 0
1 1385 -1387 0
1 1385 -1339 0
1 -1385 1386 0
1 1388 -1389 0
1 1388 -1346 0
1 -1377 -1383 0
1 1390 1391 0
1 1390 1380 0
1 -1392 1339 0
1 1393 1389 0
1 1393 1392 0
1 1394 1395 0
1 1394 1350 0
1 1395 -1392 0
1 -1386 -1392 0
1 -1386 -1396 0
1 1387 -1397 0
1 1387 1392 0
1 -1387 -1396 0
1 1398 1394 0
1 1363 -1399 0
1 -1363 1400 0
1 1401 -1402 0
1 1401 -1395 0
1 -1401 -1400 0
1 -1400 1403 0
1 -1400 1396 0
1 -1404 1363 0
1 -1404 1401 0
1 1405 1406 0
1 -1405 1354 0
1 1348 -1406 0
1 -1407 1357 0
1 1408 1407 0
1 1408 -1295 0
1 1408 1357 0
1 -1409 -1403 0
1 1409 -1367 0
1 1399 1351 0
1 1410 -1344 0
1 -1410 -1363 0
1 -1353 -1402 0
1 1402 1409 0
1 -1391 -1390 0
1 1391 -1380 0
1 -1411 1412 0
1 1411 -1413 0
1 1412 -1414 0
1 -1415 1411 0
1 1416 -1412 0
1 1416 1414 0
1 1417 -1418 0
1 -1379 1406 0
1 -1379 1413 0
1 -1419 1379 0
1 -1420 1413 0
1 -1420 1375 0
1 -1420 -1417 0
1 1421 -1422 0
1 -1423 1418 0
1 -1424 1425 0
1 -1424 1419 0
1 1424 1422 0
1 -1425 -1417 0
1 -1418 -1416 0
1 1418 1424 0
